c File: instances/34_0.40_2.col
c
c Description: Random graph of size 34 vertices and P(0.39999999999999997) of edges between any two vertices.
p col 34 561
e 1 3
e 1 4
e 1 5
e 1 6
e 1 9
e 1 11
e 1 15
e 1 16
e 1 17
e 1 18
e 1 19
e 1 20
e 1 24
e 1 25
e 1 28
e 1 34
e 2 6
e 2 7
e 2 11
e 2 14
e 2 19
e 2 21
e 2 22
e 2 24
e 2 26
e 2 28
e 2 30
e 2 33
e 3 4
e 3 5
e 3 10
e 3 11
e 3 17
e 3 18
e 3 19
e 3 22
e 3 23
e 3 25
e 3 28
e 3 29
e 3 31
e 4 6
e 4 8
e 4 10
e 4 12
e 4 14
e 4 15
e 4 17
e 4 19
e 4 20
e 4 21
e 4 23
e 4 28
e 4 30
e 4 32
e 4 33
e 4 34
e 5 9
e 5 10
e 5 14
e 5 16
e 5 18
e 5 21
e 5 26
e 5 28
e 5 29
e 5 30
e 6 7
e 6 11
e 6 12
e 6 13
e 6 14
e 6 17
e 6 19
e 6 22
e 6 24
e 6 25
e 6 27
e 6 28
e 6 32
e 7 10
e 7 12
e 7 17
e 7 18
e 7 33
e 7 34
e 8 9
e 8 13
e 8 15
e 8 16
e 8 18
e 8 20
e 8 25
e 8 28
e 8 29
e 8 31
e 8 32
e 8 34
e 9 11
e 9 12
e 9 13
e 9 15
e 9 16
e 9 17
e 9 25
e 9 28
e 9 29
e 9 30
e 9 34
e 10 11
e 10 13
e 10 19
e 10 20
e 10 23
e 10 24
e 10 26
e 10 27
e 10 28
e 10 29
e 10 30
e 10 34
e 11 12
e 11 15
e 11 16
e 11 17
e 11 19
e 11 20
e 11 22
e 11 24
e 11 26
e 11 30
e 11 31
e 11 33
e 12 13
e 12 18
e 12 21
e 12 25
e 12 27
e 12 30
e 12 31
e 12 34
e 13 23
e 13 24
e 13 30
e 13 31
e 13 32
e 14 18
e 14 19
e 14 21
e 14 22
e 14 26
e 14 31
e 15 17
e 15 18
e 15 20
e 15 26
e 15 27
e 15 32
e 15 33
e 16 19
e 16 22
e 16 24
e 16 25
e 16 27
e 17 19
e 17 21
e 17 22
e 17 26
e 17 27
e 17 29
e 17 30
e 17 33
e 17 34
e 18 19
e 18 20
e 18 25
e 18 28
e 18 29
e 18 30
e 18 32
e 18 34
e 19 21
e 19 22
e 19 23
e 19 24
e 19 27
e 19 30
e 19 33
e 19 34
e 20 21
e 20 23
e 20 25
e 20 26
e 20 30
e 20 31
e 20 32
e 20 34
e 21 22
e 21 23
e 21 24
e 21 25
e 21 29
e 21 31
e 21 32
e 21 34
e 22 25
e 22 28
e 22 29
e 22 31
e 23 27
e 23 29
e 23 30
e 23 33
e 24 26
e 24 29
e 24 30
e 24 31
e 24 33
e 24 34
e 25 28
e 25 29
e 25 30
e 25 31
e 25 32
e 26 28
e 26 34
e 27 28
e 27 29
e 27 31
e 27 33
e 27 34
e 28 31
e 28 33
e 28 34
e 29 30
e 29 32
e 31 33
e 31 34
e 32 33